;--------------------------------------------------------------------------
; Benchmark created with Zazu
; Benchmark: 		prodbin_norm_inv1_3xlen2
; Created:   		2022-01-11 18:12
; Generator of the ideal: 
; 		 -x00*y00 + x*y + z - z00
; Testing invariant: x^5*y^8*z^5 + x^9*y^5*z^6*z00 + x^4*y^7*z^6 + x^6*y^5*z^8 + x^7*y^6*z^7 - x^8*y^8*z^4 - x^9*y^5*z^7 - x^4*y^7*z^5*z00 + x^5*y^5*z^6*z00 + x^7*y^8*z^3 + x^3*x00*y^7*y00*z^4 + x^6*y^7*z^4 + x^3*y^7*z^4*z00 + x^5*x00*y^5*y00*z^6 - x^6*y^7*z^3*z00 - x^4*y^8*z^4 - x^6*x00*y^5*y00*z^7 - x^6*y^5*z^7*z00 - x^6*y^6*z^6 - x^8*x00*y^5*y00*z^5 - x^4*x00*y^7*y00*z^5 - x^7*y^7*z^5 - x^6*x00*y^7*y00*z^3 + x^9*x00*y^5*y00*z^6 - x^3*y^7*z^5 - x^8*y^5*z^5*z00 + x^7*x00*y^7*y00*z^4 + x^7*y^7*z^4*z00 + x^9*y^6*z^5 + x^8*y^5*z^6 - x^10*y^6*z^6 - x^5*y^5*z^7
;--------------------------------------------------------------------------

(set-logic NRA)
(set-option :produce-proofs true)

(declare-const x00 Real)
(declare-const y00 Real)
(declare-const z00 Real)

(assert 
	(exists
		((x Real) (y Real) (z Real))
		(and
			(= (- (+ (* (- 1) x00 y00) (* x y) z) z00) 0)

			(or
				(not (= (- (+ (- (+ (- (+ (- (+ (* 2 x 2 x 2 x 2 x 2 x (/ (- y 1) 2) (/ (- y 1) 2) (/ (- y 1) 2) (/ (- y 1) 2) (/ (- y 1) 2) (/ (- y 1) 2) (/ (- y 1) 2) (/ (- y 1) 2) (+ z x) (+ z x) (+ z x) (+ z x) (+ z x)) (* 2 x 2 x 2 x 2 x 2 x 2 x 2 x 2 x 2 x (/ (- y 1) 2) (/ (- y 1) 2) (/ (- y 1) 2) (/ (- y 1) 2) (/ (- y 1) 2) (+ z x) (+ z x) (+ z x) (+ z x) (+ z x) (+ z x) z00) (* 2 x 2 x 2 x 2 x (/ (- y 1) 2) (/ (- y 1) 2) (/ (- y 1) 2) (/ (- y 1) 2) (/ (- y 1) 2) (/ (- y 1) 2) (/ (- y 1) 2) (+ z x) (+ z x) (+ z x) (+ z x) (+ z x) (+ z x)) (* 2 x 2 x 2 x 2 x 2 x 2 x (/ (- y 1) 2) (/ (- y 1) 2) (/ (- y 1) 2) (/ (- y 1) 2) (/ (- y 1) 2) (+ z x) (+ z x) (+ z x) (+ z x) (+ z x) (+ z x) (+ z x) (+ z x)) (* 2 x 2 x 2 x 2 x 2 x 2 x 2 x (/ (- y 1) 2) (/ (- y 1) 2) (/ (- y 1) 2) (/ (- y 1) 2) (/ (- y 1) 2) (/ (- y 1) 2) (+ z x) (+ z x) (+ z x) (+ z x) (+ z x) (+ z x) (+ z x))) (* 2 x 2 x 2 x 2 x 2 x 2 x 2 x 2 x (/ (- y 1) 2) (/ (- y 1) 2) (/ (- y 1) 2) (/ (- y 1) 2) (/ (- y 1) 2) (/ (- y 1) 2) (/ (- y 1) 2) (/ (- y 1) 2) (+ z x) (+ z x) (+ z x) (+ z x)) (* 2 x 2 x 2 x 2 x 2 x 2 x 2 x 2 x 2 x (/ (- y 1) 2) (/ (- y 1) 2) (/ (- y 1) 2) (/ (- y 1) 2) (/ (- y 1) 2) (+ z x) (+ z x) (+ z x) (+ z x) (+ z x) (+ z x) (+ z x)) (* 2 x 2 x 2 x 2 x (/ (- y 1) 2) (/ (- y 1) 2) (/ (- y 1) 2) (/ (- y 1) 2) (/ (- y 1) 2) (/ (- y 1) 2) (/ (- y 1) 2) (+ z x) (+ z x) (+ z x) (+ z x) (+ z x) z00)) (* 2 x 2 x 2 x 2 x 2 x (/ (- y 1) 2) (/ (- y 1) 2) (/ (- y 1) 2) (/ (- y 1) 2) (/ (- y 1) 2) (+ z x) (+ z x) (+ z x) (+ z x) (+ z x) (+ z x) z00) (* 2 x 2 x 2 x 2 x 2 x 2 x 2 x (/ (- y 1) 2) (/ (- y 1) 2) (/ (- y 1) 2) (/ (- y 1) 2) (/ (- y 1) 2) (/ (- y 1) 2) (/ (- y 1) 2) (/ (- y 1) 2) (+ z x) (+ z x) (+ z x)) (* 2 x 2 x 2 x x00 (/ (- y 1) 2) (/ (- y 1) 2) (/ (- y 1) 2) (/ (- y 1) 2) (/ (- y 1) 2) (/ (- y 1) 2) (/ (- y 1) 2) y00 (+ z x) (+ z x) (+ z x) (+ z x)) (* 2 x 2 x 2 x 2 x 2 x 2 x (/ (- y 1) 2) (/ (- y 1) 2) (/ (- y 1) 2) (/ (- y 1) 2) (/ (- y 1) 2) (/ (- y 1) 2) (/ (- y 1) 2) (+ z x) (+ z x) (+ z x) (+ z x)) (* 2 x 2 x 2 x (/ (- y 1) 2) (/ (- y 1) 2) (/ (- y 1) 2) (/ (- y 1) 2) (/ (- y 1) 2) (/ (- y 1) 2) (/ (- y 1) 2) (+ z x) (+ z x) (+ z x) (+ z x) z00) (* 2 x 2 x 2 x 2 x 2 x x00 (/ (- y 1) 2) (/ (- y 1) 2) (/ (- y 1) 2) (/ (- y 1) 2) (/ (- y 1) 2) y00 (+ z x) (+ z x) (+ z x) (+ z x) (+ z x) (+ z x))) (* 2 x 2 x 2 x 2 x 2 x 2 x (/ (- y 1) 2) (/ (- y 1) 2) (/ (- y 1) 2) (/ (- y 1) 2) (/ (- y 1) 2) (/ (- y 1) 2) (/ (- y 1) 2) (+ z x) (+ z x) (+ z x) z00) (* 2 x 2 x 2 x 2 x (/ (- y 1) 2) (/ (- y 1) 2) (/ (- y 1) 2) (/ (- y 1) 2) (/ (- y 1) 2) (/ (- y 1) 2) (/ (- y 1) 2) (/ (- y 1) 2) (+ z x) (+ z x) (+ z x) (+ z x)) (* 2 x 2 x 2 x 2 x 2 x 2 x x00 (/ (- y 1) 2) (/ (- y 1) 2) (/ (- y 1) 2) (/ (- y 1) 2) (/ (- y 1) 2) y00 (+ z x) (+ z x) (+ z x) (+ z x) (+ z x) (+ z x) (+ z x)) (* 2 x 2 x 2 x 2 x 2 x 2 x (/ (- y 1) 2) (/ (- y 1) 2) (/ (- y 1) 2) (/ (- y 1) 2) (/ (- y 1) 2) (+ z x) (+ z x) (+ z x) (+ z x) (+ z x) (+ z x) (+ z x) z00) (* 2 x 2 x 2 x 2 x 2 x 2 x (/ (- y 1) 2) (/ (- y 1) 2) (/ (- y 1) 2) (/ (- y 1) 2) (/ (- y 1) 2) (/ (- y 1) 2) (+ z x) (+ z x) (+ z x) (+ z x) (+ z x) (+ z x)) (* 2 x 2 x 2 x 2 x 2 x 2 x 2 x 2 x x00 (/ (- y 1) 2) (/ (- y 1) 2) (/ (- y 1) 2) (/ (- y 1) 2) (/ (- y 1) 2) y00 (+ z x) (+ z x) (+ z x) (+ z x) (+ z x)) (* 2 x 2 x 2 x 2 x x00 (/ (- y 1) 2) (/ (- y 1) 2) (/ (- y 1) 2) (/ (- y 1) 2) (/ (- y 1) 2) (/ (- y 1) 2) (/ (- y 1) 2) y00 (+ z x) (+ z x) (+ z x) (+ z x) (+ z x)) (* 2 x 2 x 2 x 2 x 2 x 2 x 2 x (/ (- y 1) 2) (/ (- y 1) 2) (/ (- y 1) 2) (/ (- y 1) 2) (/ (- y 1) 2) (/ (- y 1) 2) (/ (- y 1) 2) (+ z x) (+ z x) (+ z x) (+ z x) (+ z x)) (* 2 x 2 x 2 x 2 x 2 x 2 x x00 (/ (- y 1) 2) (/ (- y 1) 2) (/ (- y 1) 2) (/ (- y 1) 2) (/ (- y 1) 2) (/ (- y 1) 2) (/ (- y 1) 2) y00 (+ z x) (+ z x) (+ z x))) (* 2 x 2 x 2 x 2 x 2 x 2 x 2 x 2 x 2 x x00 (/ (- y 1) 2) (/ (- y 1) 2) (/ (- y 1) 2) (/ (- y 1) 2) (/ (- y 1) 2) y00 (+ z x) (+ z x) (+ z x) (+ z x) (+ z x) (+ z x))) (* 2 x 2 x 2 x (/ (- y 1) 2) (/ (- y 1) 2) (/ (- y 1) 2) (/ (- y 1) 2) (/ (- y 1) 2) (/ (- y 1) 2) (/ (- y 1) 2) (+ z x) (+ z x) (+ z x) (+ z x) (+ z x)) (* 2 x 2 x 2 x 2 x 2 x 2 x 2 x 2 x (/ (- y 1) 2) (/ (- y 1) 2) (/ (- y 1) 2) (/ (- y 1) 2) (/ (- y 1) 2) (+ z x) (+ z x) (+ z x) (+ z x) (+ z x) z00)) (* 2 x 2 x 2 x 2 x 2 x 2 x 2 x x00 (/ (- y 1) 2) (/ (- y 1) 2) (/ (- y 1) 2) (/ (- y 1) 2) (/ (- y 1) 2) (/ (- y 1) 2) (/ (- y 1) 2) y00 (+ z x) (+ z x) (+ z x) (+ z x)) (* 2 x 2 x 2 x 2 x 2 x 2 x 2 x (/ (- y 1) 2) (/ (- y 1) 2) (/ (- y 1) 2) (/ (- y 1) 2) (/ (- y 1) 2) (/ (- y 1) 2) (/ (- y 1) 2) (+ z x) (+ z x) (+ z x) (+ z x) z00) (* 2 x 2 x 2 x 2 x 2 x 2 x 2 x 2 x 2 x (/ (- y 1) 2) (/ (- y 1) 2) (/ (- y 1) 2) (/ (- y 1) 2) (/ (- y 1) 2) (/ (- y 1) 2) (+ z x) (+ z x) (+ z x) (+ z x) (+ z x)) (* 2 x 2 x 2 x 2 x 2 x 2 x 2 x 2 x (/ (- y 1) 2) (/ (- y 1) 2) (/ (- y 1) 2) (/ (- y 1) 2) (/ (- y 1) 2) (+ z x) (+ z x) (+ z x) (+ z x) (+ z x) (+ z x))) (* 2 x 2 x 2 x 2 x 2 x 2 x 2 x 2 x 2 x 2 x (/ (- y 1) 2) (/ (- y 1) 2) (/ (- y 1) 2) (/ (- y 1) 2) (/ (- y 1) 2) (/ (- y 1) 2) (+ z x) (+ z x) (+ z x) (+ z x) (+ z x) (+ z x)) (* 2 x 2 x 2 x 2 x 2 x (/ (- y 1) 2) (/ (- y 1) 2) (/ (- y 1) 2) (/ (- y 1) 2) (/ (- y 1) 2) (+ z x) (+ z x) (+ z x) (+ z x) (+ z x) (+ z x) (+ z x))) 0))
				(not (= (- (+ (- (+ (- (+ (- (+ (* 2 x 2 x 2 x 2 x 2 x (/ y 2) (/ y 2) (/ y 2) (/ y 2) (/ y 2) (/ y 2) (/ y 2) (/ y 2) z z z z z) (* 2 x 2 x 2 x 2 x 2 x 2 x 2 x 2 x 2 x (/ y 2) (/ y 2) (/ y 2) (/ y 2) (/ y 2) z z z z z z z00) (* 2 x 2 x 2 x 2 x (/ y 2) (/ y 2) (/ y 2) (/ y 2) (/ y 2) (/ y 2) (/ y 2) z z z z z z) (* 2 x 2 x 2 x 2 x 2 x 2 x (/ y 2) (/ y 2) (/ y 2) (/ y 2) (/ y 2) z z z z z z z z) (* 2 x 2 x 2 x 2 x 2 x 2 x 2 x (/ y 2) (/ y 2) (/ y 2) (/ y 2) (/ y 2) (/ y 2) z z z z z z z)) (* 2 x 2 x 2 x 2 x 2 x 2 x 2 x 2 x (/ y 2) (/ y 2) (/ y 2) (/ y 2) (/ y 2) (/ y 2) (/ y 2) (/ y 2) z z z z) (* 2 x 2 x 2 x 2 x 2 x 2 x 2 x 2 x 2 x (/ y 2) (/ y 2) (/ y 2) (/ y 2) (/ y 2) z z z z z z z) (* 2 x 2 x 2 x 2 x (/ y 2) (/ y 2) (/ y 2) (/ y 2) (/ y 2) (/ y 2) (/ y 2) z z z z z z00)) (* 2 x 2 x 2 x 2 x 2 x (/ y 2) (/ y 2) (/ y 2) (/ y 2) (/ y 2) z z z z z z z00) (* 2 x 2 x 2 x 2 x 2 x 2 x 2 x (/ y 2) (/ y 2) (/ y 2) (/ y 2) (/ y 2) (/ y 2) (/ y 2) (/ y 2) z z z) (* 2 x 2 x 2 x x00 (/ y 2) (/ y 2) (/ y 2) (/ y 2) (/ y 2) (/ y 2) (/ y 2) y00 z z z z) (* 2 x 2 x 2 x 2 x 2 x 2 x (/ y 2) (/ y 2) (/ y 2) (/ y 2) (/ y 2) (/ y 2) (/ y 2) z z z z) (* 2 x 2 x 2 x (/ y 2) (/ y 2) (/ y 2) (/ y 2) (/ y 2) (/ y 2) (/ y 2) z z z z z00) (* 2 x 2 x 2 x 2 x 2 x x00 (/ y 2) (/ y 2) (/ y 2) (/ y 2) (/ y 2) y00 z z z z z z)) (* 2 x 2 x 2 x 2 x 2 x 2 x (/ y 2) (/ y 2) (/ y 2) (/ y 2) (/ y 2) (/ y 2) (/ y 2) z z z z00) (* 2 x 2 x 2 x 2 x (/ y 2) (/ y 2) (/ y 2) (/ y 2) (/ y 2) (/ y 2) (/ y 2) (/ y 2) z z z z) (* 2 x 2 x 2 x 2 x 2 x 2 x x00 (/ y 2) (/ y 2) (/ y 2) (/ y 2) (/ y 2) y00 z z z z z z z) (* 2 x 2 x 2 x 2 x 2 x 2 x (/ y 2) (/ y 2) (/ y 2) (/ y 2) (/ y 2) z z z z z z z z00) (* 2 x 2 x 2 x 2 x 2 x 2 x (/ y 2) (/ y 2) (/ y 2) (/ y 2) (/ y 2) (/ y 2) z z z z z z) (* 2 x 2 x 2 x 2 x 2 x 2 x 2 x 2 x x00 (/ y 2) (/ y 2) (/ y 2) (/ y 2) (/ y 2) y00 z z z z z) (* 2 x 2 x 2 x 2 x x00 (/ y 2) (/ y 2) (/ y 2) (/ y 2) (/ y 2) (/ y 2) (/ y 2) y00 z z z z z) (* 2 x 2 x 2 x 2 x 2 x 2 x 2 x (/ y 2) (/ y 2) (/ y 2) (/ y 2) (/ y 2) (/ y 2) (/ y 2) z z z z z) (* 2 x 2 x 2 x 2 x 2 x 2 x x00 (/ y 2) (/ y 2) (/ y 2) (/ y 2) (/ y 2) (/ y 2) (/ y 2) y00 z z z)) (* 2 x 2 x 2 x 2 x 2 x 2 x 2 x 2 x 2 x x00 (/ y 2) (/ y 2) (/ y 2) (/ y 2) (/ y 2) y00 z z z z z z)) (* 2 x 2 x 2 x (/ y 2) (/ y 2) (/ y 2) (/ y 2) (/ y 2) (/ y 2) (/ y 2) z z z z z) (* 2 x 2 x 2 x 2 x 2 x 2 x 2 x 2 x (/ y 2) (/ y 2) (/ y 2) (/ y 2) (/ y 2) z z z z z z00)) (* 2 x 2 x 2 x 2 x 2 x 2 x 2 x x00 (/ y 2) (/ y 2) (/ y 2) (/ y 2) (/ y 2) (/ y 2) (/ y 2) y00 z z z z) (* 2 x 2 x 2 x 2 x 2 x 2 x 2 x (/ y 2) (/ y 2) (/ y 2) (/ y 2) (/ y 2) (/ y 2) (/ y 2) z z z z z00) (* 2 x 2 x 2 x 2 x 2 x 2 x 2 x 2 x 2 x (/ y 2) (/ y 2) (/ y 2) (/ y 2) (/ y 2) (/ y 2) z z z z z) (* 2 x 2 x 2 x 2 x 2 x 2 x 2 x 2 x (/ y 2) (/ y 2) (/ y 2) (/ y 2) (/ y 2) z z z z z z)) (* 2 x 2 x 2 x 2 x 2 x 2 x 2 x 2 x 2 x 2 x (/ y 2) (/ y 2) (/ y 2) (/ y 2) (/ y 2) (/ y 2) z z z z z z) (* 2 x 2 x 2 x 2 x 2 x (/ y 2) (/ y 2) (/ y 2) (/ y 2) (/ y 2) z z z z z z z)) 0))
			)
		)
	)
)
(check-sat)
(get-proof)
(exit)
